Maximize
  - 5.4882488378356 edge_0_1_0_0 - 0.25577516324544 edge_0_2_0_0
   - 5.3243035319331 edge_0_3_0_0 - 2.693425821009999 edge_0_4_0_0
   - 1.3094933624315 edge_0_5_0_0 - 3.0409196350896 edge_0_6_0_0
   - 3.4497061018277 edge_0_9_0_0 - 3.7360941962547 edge_0_12_0_0
   - 2.261737558207 edge_0_15_0_0 - 4.509838917638399 edge_0_18_0_0
   + 0.4860295261043969 edge_1_2_0_0 - 0.5688923399625599 edge_1_4_0_0
   - 0.2936192616446584 edge_1_5_0_0 + 0.2667646643109263 edge_1_6_0_0
   + 3.457827565597599 edge_2_1_0_0 + 1.029063975222194 edge_2_3_0_0
   + 3.2277463526425 edge_2_4_0_0 + 2.153309187456887 edge_2_5_0_0
   + 2.438371907228098 edge_2_6_0_0 + 1.603195636249384 edge_2_7_0_0
   + 1.879012138631484 edge_2_9_0_0 + 1.400800023204385 edge_2_10_0_0
   + 1.575454679600016 edge_2_12_0_0 + 1.197728943845164 edge_2_13_0_0
   + 0.7160514862161221 edge_2_15_0_0 + 2.059295674743258 edge_2_17_0_0
   + 1.033111739550676 edge_2_18_0_0 + 2.418282739447086 edge_2_19_0_0
   - 0.0898261325308375 edge_3_2_0_0 + 1.5414695163846 edge_3_4_0_0
   + 0.173389756132763 edge_3_5_0_0 + 0.41164503908715 edge_3_6_0_0
   + 0.7831384940620475 edge_3_13_0_0 + 0.6283597508721701 edge_3_17_0_0
   + 0.4288184390843099 edge_3_19_0_0 + 0.8138606096289299 edge_4_1_0_0
   + 0.6526682624840301 edge_4_2_0_0 + 3.174412848384 edge_4_3_0_0
   + 1.241799800807243 edge_4_5_0_0 + 1.16101 edge_4_6_0_0
   + 1.216296350217588 edge_4_7_0_0 + 0.82758232000448 edge_4_9_0_0
   + 1.2911243033808 edge_4_10_0_0 + 0.80337785539196 edge_4_12_0_0
   + 1.353135838028 edge_4_13_0_0 + 0.7843164116868 edge_4_15_0_0
   + 2.8674323444048 edge_4_17_0_0 + 1.4938796414688 edge_4_18_0_0
   + 0.2710593721790991 edge_4_19_0_0 + 0.1120124436288277 edge_5_1_0_0
   + 0.4457012921601481 edge_5_2_0_0 + 0.2683580863259284 edge_5_3_0_0
   + 0.31832899830321 edge_5_4_0_0 + 0.2951591374790687 edge_5_6_0_0
   + 0.2651281111343344 edge_5_7_0_0 + 0.0547344147178963 edge_5_9_0_0
   + 0.272930008850483 edge_5_10_0_0 - 0.0648833688774619 edge_5_12_0_0
   + 0.2987466937158505 edge_5_13_0_0 - 0.2037904005173055 edge_5_15_0_0
   - 0.0837005489613969 edge_5_17_0_0 - 0.2536075477609962 edge_5_18_0_0
   - 0.2508874534072376 edge_5_19_0_0 + 1.069533353365654 edge_6_1_0_0
   + 0.7286107364520005 edge_6_2_0_0 + 1.254302544948843 edge_6_3_0_0
   + 0.7048585030768494 edge_6_4_0_0 + 1.819944058557687 edge_6_5_0_0
   + 3.0512979745125 edge_6_7_0_0 + 3.018564333587868 edge_6_9_0_0
   + 3.0565875620343 edge_6_10_0_0 + 2.399203570121143 edge_6_12_0_0
   + 2.7999350690324 edge_6_13_0_0 + 1.874004258232 edge_6_15_0_0
   + 3.5815310846436 edge_6_17_0_0 + 2.6955193530752 edge_6_18_0_0
   + 1.534898894872111 edge_6_19_0_0 - 0.9557549506875653 edge_7_2_0_0
   - 1.65013272149537 edge_7_4_0_0 - 0.6050935868335865 edge_7_5_0_0
   - 0.5771160931402304 edge_7_6_0_0 + 0.2858985119660227 edge_7_9_0_0
   - 0.0683280483675144 edge_7_10_0_0 - 1.173969042241173 edge_7_12_0_0
   - 0.8648198223064393 edge_7_13_0_0 - 0.1076162955505286 edge_9_1_0_0
   - 0.2443192279493605 edge_9_2_0_0 + 0.7598324830105283 edge_9_3_0_0
   + 0.6700716397518101 edge_9_4_0_0 + 0.3849246226733741 edge_9_5_0_0
   + 1.640167556147367 edge_9_6_0_0 + 1.25917213159765 edge_9_7_0_0
   + 2.116835114794894 edge_9_10_0_0 + 1.95601951568855 edge_9_12_0_0
   + 2.119508916809164 edge_9_13_0_0 + 1.049169057070491 edge_9_15_0_0
   + 2.516064479107539 edge_9_17_0_0 + 1.758306008637157 edge_9_18_0_0
   + 0.8220835976208855 edge_9_19_0_0 - 1.892649969219725 edge_10_4_0_0
   - 0.9419631525077772 edge_10_5_0_0 - 1.445849541430234 edge_10_6_0_0
   - 0.5780219197174939 edge_10_7_0_0 - 0.568422017627031 edge_10_9_0_0
   + 0.2881558153632957 edge_10_12_0_0 - 0.0689808177615936 edge_10_13_0_0
   - 0.2195814946619199 edge_10_15_0_0 - 0.8810429539238432 edge_10_17_0_0
   - 1.387267286572702 edge_10_18_0_0 - 0.5454330785412183 edge_12_1_0_0
   - 0.482776928123358 edge_12_2_0_0 + 0.5985650208304568 edge_12_3_0_0
   + 0.43581092155402 edge_12_4_0_0 + 0.1339546773538351 edge_12_5_0_0
   + 0.616677169439739 edge_12_6_0_0 + 0.2173410703898503 edge_12_7_0_0
   + 1.64016120869664 edge_12_9_0_0 + 1.310632951486613 edge_12_10_0_0
   + 2.11370717486604 edge_12_13_0_0 + 1.64042592502728 edge_12_15_0_0
   + 2.556460866985761 edge_12_17_0_0 + 1.89116177341146 edge_12_18_0_0
   + 0.8933619815664694 edge_12_19_0_0 - 2.103513502389087 edge_13_4_0_0
   - 1.915959167161472 edge_13_6_0_0 - 1.340947703172482 edge_13_7_0_0
   - 1.454670772751708 edge_13_9_0_0 - 0.9298644723620593 edge_13_10_0_0
   - 0.6024603434742188 edge_13_12_0_0 + 0.2914989623116304 edge_13_15_0_0
   - 0.2342445432298378 edge_13_17_0_0 - 0.1361504122565748 edge_13_18_0_0
   - 0.2063671877200331 edge_13_19_0_0 - 0.3193321885818263 edge_15_1_0_0
   - 0.6012862696929475 edge_15_2_0_0 + 0.349240156595842 edge_15_3_0_0
   + 0.2411519743064 edge_15_4_0_0 - 0.1580917493853701 edge_15_5_0_0
   - 0.0850709564253447 edge_15_6_0_0 - 0.0985007519053587 edge_15_7_0_0
   + 0.3019944783178539 edge_15_9_0_0 + 0.1515754578995484 edge_15_10_0_0
   + 0.8527943305697225 edge_15_12_0_0 + 0.9114081500877681 edge_15_13_0_0
   + 2.367798394520413 edge_15_17_0_0 + 1.724765097904277 edge_15_18_0_0
   + 0.7153029914044 edge_15_19_0_0 - 0.8084199034249391 edge_17_9_0_0
   - 0.7910979567921521 edge_17_12_0_0 - 0.2836552588777818 edge_17_13_0_0
   - 0.0857087855877059 edge_17_15_0_0 + 0.7858411338475526 edge_17_18_0_0
   + 0.495714827756177 edge_17_19_0_0 - 1.509507931971709 edge_18_2_0_0
   - 0.4125265977283727 edge_18_5_0_0 - 1.510146607166027 edge_18_6_0_0
   - 1.210261302754666 edge_18_7_0_0 - 0.8267461232824428 edge_18_9_0_0
   - 0.5537581277775574 edge_18_10_0_0 - 0.5160527832577623 edge_18_12_0_0
   - 0.3032477937592721 edge_18_13_0_0 + 0.066944021598791 edge_18_15_0_0
   + 0.5683780681252639 edge_18_17_0_0 + 0.76750081579976 edge_18_19_0_0
   - 1.264927361481628 edge_19_17_0_0 + 0.08420647979044 edge_19_18_0_0
Subject To
 one_parent_1: edge_0_1_0_0 + edge_2_1_0_0 + edge_4_1_0_0 + edge_5_1_0_0
   + edge_6_1_0_0 + edge_9_1_0_0 + edge_12_1_0_0 + edge_15_1_0_0 = 1
 consume_one_flow_unit_1: flow_0_1_0_0 - flow_1_2_0_0 - flow_1_4_0_0
   - flow_1_5_0_0 - flow_1_6_0_0 + flow_2_1_0_0 + flow_4_1_0_0
   + flow_5_1_0_0 + flow_6_1_0_0 + flow_9_1_0_0 + flow_12_1_0_0
   + flow_15_1_0_0 = 1
 one_parent_2: edge_0_2_0_0 + edge_1_2_0_0 + edge_3_2_0_0 + edge_4_2_0_0
   + edge_5_2_0_0 + edge_6_2_0_0 + edge_7_2_0_0 + edge_9_2_0_0
   + edge_12_2_0_0 + edge_15_2_0_0 + edge_18_2_0_0 = 1
 consume_one_flow_unit_2: flow_0_2_0_0 + flow_1_2_0_0 - flow_2_1_0_0
   - flow_2_3_0_0 - flow_2_4_0_0 - flow_2_5_0_0 - flow_2_6_0_0
   - flow_2_7_0_0 - flow_2_9_0_0 - flow_2_10_0_0 - flow_2_12_0_0
   - flow_2_13_0_0 - flow_2_15_0_0 - flow_2_17_0_0 - flow_2_18_0_0
   - flow_2_19_0_0 + flow_3_2_0_0 + flow_4_2_0_0 + flow_5_2_0_0
   + flow_6_2_0_0 + flow_7_2_0_0 + flow_9_2_0_0 + flow_12_2_0_0
   + flow_15_2_0_0 + flow_18_2_0_0 = 1
 one_parent_3: edge_0_3_0_0 + edge_2_3_0_0 + edge_4_3_0_0 + edge_5_3_0_0
   + edge_6_3_0_0 + edge_9_3_0_0 + edge_12_3_0_0 + edge_15_3_0_0 = 1
 consume_one_flow_unit_3: flow_0_3_0_0 + flow_2_3_0_0 - flow_3_2_0_0
   - flow_3_4_0_0 - flow_3_5_0_0 - flow_3_6_0_0 - flow_3_13_0_0
   - flow_3_17_0_0 - flow_3_19_0_0 + flow_4_3_0_0 + flow_5_3_0_0
   + flow_6_3_0_0 + flow_9_3_0_0 + flow_12_3_0_0 + flow_15_3_0_0 = 1
 one_parent_4: edge_0_4_0_0 + edge_1_4_0_0 + edge_2_4_0_0 + edge_3_4_0_0
   + edge_5_4_0_0 + edge_6_4_0_0 + edge_7_4_0_0 + edge_9_4_0_0
   + edge_10_4_0_0 + edge_12_4_0_0 + edge_13_4_0_0 + edge_15_4_0_0 = 1
 consume_one_flow_unit_4: flow_0_4_0_0 + flow_1_4_0_0 + flow_2_4_0_0
   + flow_3_4_0_0 - flow_4_1_0_0 - flow_4_2_0_0 - flow_4_3_0_0
   - flow_4_5_0_0 - flow_4_6_0_0 - flow_4_7_0_0 - flow_4_9_0_0
   - flow_4_10_0_0 - flow_4_12_0_0 - flow_4_13_0_0 - flow_4_15_0_0
   - flow_4_17_0_0 - flow_4_18_0_0 - flow_4_19_0_0 + flow_5_4_0_0
   + flow_6_4_0_0 + flow_7_4_0_0 + flow_9_4_0_0 + flow_10_4_0_0
   + flow_12_4_0_0 + flow_13_4_0_0 + flow_15_4_0_0 = 1
 one_parent_5: edge_0_5_0_0 + edge_1_5_0_0 + edge_2_5_0_0 + edge_3_5_0_0
   + edge_4_5_0_0 + edge_6_5_0_0 + edge_7_5_0_0 + edge_9_5_0_0
   + edge_10_5_0_0 + edge_12_5_0_0 + edge_15_5_0_0 + edge_18_5_0_0 = 1
 consume_one_flow_unit_5: flow_0_5_0_0 + flow_1_5_0_0 + flow_2_5_0_0
   + flow_3_5_0_0 + flow_4_5_0_0 - flow_5_1_0_0 - flow_5_2_0_0
   - flow_5_3_0_0 - flow_5_4_0_0 - flow_5_6_0_0 - flow_5_7_0_0
   - flow_5_9_0_0 - flow_5_10_0_0 - flow_5_12_0_0 - flow_5_13_0_0
   - flow_5_15_0_0 - flow_5_17_0_0 - flow_5_18_0_0 - flow_5_19_0_0
   + flow_6_5_0_0 + flow_7_5_0_0 + flow_9_5_0_0 + flow_10_5_0_0
   + flow_12_5_0_0 + flow_15_5_0_0 + flow_18_5_0_0 = 1
 one_parent_6: edge_0_6_0_0 + edge_1_6_0_0 + edge_2_6_0_0 + edge_3_6_0_0
   + edge_4_6_0_0 + edge_5_6_0_0 + edge_7_6_0_0 + edge_9_6_0_0
   + edge_10_6_0_0 + edge_12_6_0_0 + edge_13_6_0_0 + edge_15_6_0_0
   + edge_18_6_0_0 = 1
 consume_one_flow_unit_6: flow_0_6_0_0 + flow_1_6_0_0 + flow_2_6_0_0
   + flow_3_6_0_0 + flow_4_6_0_0 + flow_5_6_0_0 - flow_6_1_0_0
   - flow_6_2_0_0 - flow_6_3_0_0 - flow_6_4_0_0 - flow_6_5_0_0
   - flow_6_7_0_0 - flow_6_9_0_0 - flow_6_10_0_0 - flow_6_12_0_0
   - flow_6_13_0_0 - flow_6_15_0_0 - flow_6_17_0_0 - flow_6_18_0_0
   - flow_6_19_0_0 + flow_7_6_0_0 + flow_9_6_0_0 + flow_10_6_0_0
   + flow_12_6_0_0 + flow_13_6_0_0 + flow_15_6_0_0 + flow_18_6_0_0 = 1
 one_parent_7: edge_2_7_0_0 + edge_4_7_0_0 + edge_5_7_0_0 + edge_6_7_0_0
   + edge_9_7_0_0 + edge_10_7_0_0 + edge_12_7_0_0 + edge_13_7_0_0
   + edge_15_7_0_0 + edge_18_7_0_0 = 1
 consume_one_flow_unit_7: flow_2_7_0_0 + flow_4_7_0_0 + flow_5_7_0_0
   + flow_6_7_0_0 - flow_7_2_0_0 - flow_7_4_0_0 - flow_7_5_0_0
   - flow_7_6_0_0 - flow_7_9_0_0 - flow_7_10_0_0 - flow_7_12_0_0
   - flow_7_13_0_0 + flow_9_7_0_0 + flow_10_7_0_0 + flow_12_7_0_0
   + flow_13_7_0_0 + flow_15_7_0_0 + flow_18_7_0_0 = 1
 one_parent_8: = 1
 consume_one_flow_unit_8: = 1
 one_parent_9: edge_0_9_0_0 + edge_2_9_0_0 + edge_4_9_0_0 + edge_5_9_0_0
   + edge_6_9_0_0 + edge_7_9_0_0 + edge_10_9_0_0 + edge_12_9_0_0
   + edge_13_9_0_0 + edge_15_9_0_0 + edge_17_9_0_0 + edge_18_9_0_0 = 1
 consume_one_flow_unit_9: flow_0_9_0_0 + flow_2_9_0_0 + flow_4_9_0_0
   + flow_5_9_0_0 + flow_6_9_0_0 + flow_7_9_0_0 - flow_9_1_0_0
   - flow_9_2_0_0 - flow_9_3_0_0 - flow_9_4_0_0 - flow_9_5_0_0
   - flow_9_6_0_0 - flow_9_7_0_0 - flow_9_10_0_0 - flow_9_12_0_0
   - flow_9_13_0_0 - flow_9_15_0_0 - flow_9_17_0_0 - flow_9_18_0_0
   - flow_9_19_0_0 + flow_10_9_0_0 + flow_12_9_0_0 + flow_13_9_0_0
   + flow_15_9_0_0 + flow_17_9_0_0 + flow_18_9_0_0 = 1
 one_parent_10: edge_2_10_0_0 + edge_4_10_0_0 + edge_5_10_0_0
   + edge_6_10_0_0 + edge_7_10_0_0 + edge_9_10_0_0 + edge_12_10_0_0
   + edge_13_10_0_0 + edge_15_10_0_0 + edge_18_10_0_0 = 1
 consume_one_flow_unit_10: flow_2_10_0_0 + flow_4_10_0_0 + flow_5_10_0_0
   + flow_6_10_0_0 + flow_7_10_0_0 + flow_9_10_0_0 - flow_10_4_0_0
   - flow_10_5_0_0 - flow_10_6_0_0 - flow_10_7_0_0 - flow_10_9_0_0
   - flow_10_12_0_0 - flow_10_13_0_0 - flow_10_15_0_0 - flow_10_17_0_0
   - flow_10_18_0_0 + flow_12_10_0_0 + flow_13_10_0_0 + flow_15_10_0_0
   + flow_18_10_0_0 = 1
 one_parent_11: = 1
 consume_one_flow_unit_11: = 1
 one_parent_12: edge_0_12_0_0 + edge_2_12_0_0 + edge_4_12_0_0
   + edge_5_12_0_0 + edge_6_12_0_0 + edge_7_12_0_0 + edge_9_12_0_0
   + edge_10_12_0_0 + edge_13_12_0_0 + edge_15_12_0_0 + edge_17_12_0_0
   + edge_18_12_0_0 = 1
 consume_one_flow_unit_12: flow_0_12_0_0 + flow_2_12_0_0 + flow_4_12_0_0
   + flow_5_12_0_0 + flow_6_12_0_0 + flow_7_12_0_0 + flow_9_12_0_0
   + flow_10_12_0_0 - flow_12_1_0_0 - flow_12_2_0_0 - flow_12_3_0_0
   - flow_12_4_0_0 - flow_12_5_0_0 - flow_12_6_0_0 - flow_12_7_0_0
   - flow_12_9_0_0 - flow_12_10_0_0 - flow_12_13_0_0 - flow_12_15_0_0
   - flow_12_17_0_0 - flow_12_18_0_0 - flow_12_19_0_0 + flow_13_12_0_0
   + flow_15_12_0_0 + flow_17_12_0_0 + flow_18_12_0_0 = 1
 one_parent_13: edge_2_13_0_0 + edge_3_13_0_0 + edge_4_13_0_0
   + edge_5_13_0_0 + edge_6_13_0_0 + edge_7_13_0_0 + edge_9_13_0_0
   + edge_10_13_0_0 + edge_12_13_0_0 + edge_15_13_0_0 + edge_17_13_0_0
   + edge_18_13_0_0 = 1
 consume_one_flow_unit_13: flow_2_13_0_0 + flow_3_13_0_0 + flow_4_13_0_0
   + flow_5_13_0_0 + flow_6_13_0_0 + flow_7_13_0_0 + flow_9_13_0_0
   + flow_10_13_0_0 + flow_12_13_0_0 - flow_13_4_0_0 - flow_13_6_0_0
   - flow_13_7_0_0 - flow_13_9_0_0 - flow_13_10_0_0 - flow_13_12_0_0
   - flow_13_15_0_0 - flow_13_17_0_0 - flow_13_18_0_0 - flow_13_19_0_0
   + flow_15_13_0_0 + flow_17_13_0_0 + flow_18_13_0_0 = 1
 one_parent_14: = 1
 consume_one_flow_unit_14: = 1
 one_parent_15: edge_0_15_0_0 + edge_2_15_0_0 + edge_4_15_0_0
   + edge_5_15_0_0 + edge_6_15_0_0 + edge_9_15_0_0 + edge_10_15_0_0
   + edge_12_15_0_0 + edge_13_15_0_0 + edge_17_15_0_0 + edge_18_15_0_0 = 1
 consume_one_flow_unit_15: flow_0_15_0_0 + flow_2_15_0_0 + flow_4_15_0_0
   + flow_5_15_0_0 + flow_6_15_0_0 + flow_9_15_0_0 + flow_10_15_0_0
   + flow_12_15_0_0 + flow_13_15_0_0 - flow_15_1_0_0 - flow_15_2_0_0
   - flow_15_3_0_0 - flow_15_4_0_0 - flow_15_5_0_0 - flow_15_6_0_0
   - flow_15_7_0_0 - flow_15_9_0_0 - flow_15_10_0_0 - flow_15_12_0_0
   - flow_15_13_0_0 - flow_15_17_0_0 - flow_15_18_0_0 - flow_15_19_0_0
   + flow_17_15_0_0 + flow_18_15_0_0 = 1
 one_parent_16: = 1
 consume_one_flow_unit_16: = 1
 one_parent_17: edge_2_17_0_0 + edge_3_17_0_0 + edge_4_17_0_0
   + edge_5_17_0_0 + edge_6_17_0_0 + edge_9_17_0_0 + edge_10_17_0_0
   + edge_12_17_0_0 + edge_13_17_0_0 + edge_15_17_0_0 + edge_18_17_0_0
   + edge_19_17_0_0 = 1
 consume_one_flow_unit_17: flow_2_17_0_0 + flow_3_17_0_0 + flow_4_17_0_0
   + flow_5_17_0_0 + flow_6_17_0_0 + flow_9_17_0_0 + flow_10_17_0_0
   + flow_12_17_0_0 + flow_13_17_0_0 + flow_15_17_0_0 - flow_17_9_0_0
   - flow_17_12_0_0 - flow_17_13_0_0 - flow_17_15_0_0 - flow_17_18_0_0
   - flow_17_19_0_0 + flow_18_17_0_0 + flow_19_17_0_0 = 1
 one_parent_18: edge_0_18_0_0 + edge_2_18_0_0 + edge_4_18_0_0
   + edge_5_18_0_0 + edge_6_18_0_0 + edge_9_18_0_0 + edge_10_18_0_0
   + edge_12_18_0_0 + edge_13_18_0_0 + edge_15_18_0_0 + edge_17_18_0_0
   + edge_19_18_0_0 = 1
 consume_one_flow_unit_18: flow_0_18_0_0 + flow_2_18_0_0 + flow_4_18_0_0
   + flow_5_18_0_0 + flow_6_18_0_0 + flow_9_18_0_0 + flow_10_18_0_0
   + flow_12_18_0_0 + flow_13_18_0_0 + flow_15_18_0_0 + flow_17_18_0_0
   - flow_18_2_0_0 - flow_18_5_0_0 - flow_18_6_0_0 - flow_18_7_0_0
   - flow_18_9_0_0 - flow_18_10_0_0 - flow_18_12_0_0 - flow_18_13_0_0
   - flow_18_15_0_0 - flow_18_17_0_0 - flow_18_19_0_0 + flow_19_18_0_0 = 1
 one_parent_19: edge_2_19_0_0 + edge_3_19_0_0 + edge_4_19_0_0
   + edge_5_19_0_0 + edge_6_19_0_0 + edge_9_19_0_0 + edge_12_19_0_0
   + edge_13_19_0_0 + edge_15_19_0_0 + edge_17_19_0_0 + edge_18_19_0_0 = 1
 consume_one_flow_unit_19: flow_2_19_0_0 + flow_3_19_0_0 + flow_4_19_0_0
   + flow_5_19_0_0 + flow_6_19_0_0 + flow_9_19_0_0 + flow_12_19_0_0
   + flow_13_19_0_0 + flow_15_19_0_0 + flow_17_19_0_0 + flow_18_19_0_0
   - flow_19_17_0_0 - flow_19_18_0_0 = 1
 root_flow: flow_0_1_0_0 + flow_0_2_0_0 + flow_0_3_0_0 + flow_0_4_0_0
   + flow_0_5_0_0 + flow_0_6_0_0 + flow_0_9_0_0 + flow_0_12_0_0
   + flow_0_15_0_0 + flow_0_18_0_0 = 19
 inactive_no_flow_0_1_0_0: flow_0_1_0_0 - 1000 edge_0_1_0_0 <= 0
 inactive_no_flow_0_2_0_0: flow_0_2_0_0 - 1000 edge_0_2_0_0 <= 0
 inactive_no_flow_0_3_0_0: flow_0_3_0_0 - 1000 edge_0_3_0_0 <= 0
 inactive_no_flow_0_4_0_0: flow_0_4_0_0 - 1000 edge_0_4_0_0 <= 0
 inactive_no_flow_0_5_0_0: flow_0_5_0_0 - 1000 edge_0_5_0_0 <= 0
 inactive_no_flow_0_6_0_0: flow_0_6_0_0 - 1000 edge_0_6_0_0 <= 0
 inactive_no_flow_0_9_0_0: flow_0_9_0_0 - 1000 edge_0_9_0_0 <= 0
 inactive_no_flow_0_12_0_0: flow_0_12_0_0 - 1000 edge_0_12_0_0 <= 0
 inactive_no_flow_0_15_0_0: flow_0_15_0_0 - 1000 edge_0_15_0_0 <= 0
 inactive_no_flow_0_18_0_0: flow_0_18_0_0 - 1000 edge_0_18_0_0 <= 0
 inactive_no_flow_1_2_0_0: flow_1_2_0_0 - 1000 edge_1_2_0_0 <= 0
 inactive_no_flow_1_4_0_0: flow_1_4_0_0 - 1000 edge_1_4_0_0 <= 0
 inactive_no_flow_1_5_0_0: flow_1_5_0_0 - 1000 edge_1_5_0_0 <= 0
 inactive_no_flow_1_6_0_0: flow_1_6_0_0 - 1000 edge_1_6_0_0 <= 0
 inactive_no_flow_2_1_0_0: flow_2_1_0_0 - 1000 edge_2_1_0_0 <= 0
 inactive_no_flow_2_3_0_0: flow_2_3_0_0 - 1000 edge_2_3_0_0 <= 0
 inactive_no_flow_2_4_0_0: flow_2_4_0_0 - 1000 edge_2_4_0_0 <= 0
 inactive_no_flow_2_5_0_0: flow_2_5_0_0 - 1000 edge_2_5_0_0 <= 0
 inactive_no_flow_2_6_0_0: flow_2_6_0_0 - 1000 edge_2_6_0_0 <= 0
 inactive_no_flow_2_7_0_0: flow_2_7_0_0 - 1000 edge_2_7_0_0 <= 0
 inactive_no_flow_2_9_0_0: flow_2_9_0_0 - 1000 edge_2_9_0_0 <= 0
 inactive_no_flow_2_10_0_0: flow_2_10_0_0 - 1000 edge_2_10_0_0 <= 0
 inactive_no_flow_2_12_0_0: flow_2_12_0_0 - 1000 edge_2_12_0_0 <= 0
 inactive_no_flow_2_13_0_0: flow_2_13_0_0 - 1000 edge_2_13_0_0 <= 0
 inactive_no_flow_2_15_0_0: flow_2_15_0_0 - 1000 edge_2_15_0_0 <= 0
 inactive_no_flow_2_17_0_0: flow_2_17_0_0 - 1000 edge_2_17_0_0 <= 0
 inactive_no_flow_2_18_0_0: flow_2_18_0_0 - 1000 edge_2_18_0_0 <= 0
 inactive_no_flow_2_19_0_0: flow_2_19_0_0 - 1000 edge_2_19_0_0 <= 0
 inactive_no_flow_3_2_0_0: flow_3_2_0_0 - 1000 edge_3_2_0_0 <= 0
 inactive_no_flow_3_4_0_0: flow_3_4_0_0 - 1000 edge_3_4_0_0 <= 0
 inactive_no_flow_3_5_0_0: flow_3_5_0_0 - 1000 edge_3_5_0_0 <= 0
 inactive_no_flow_3_6_0_0: flow_3_6_0_0 - 1000 edge_3_6_0_0 <= 0
 inactive_no_flow_3_13_0_0: flow_3_13_0_0 - 1000 edge_3_13_0_0 <= 0
 inactive_no_flow_3_17_0_0: flow_3_17_0_0 - 1000 edge_3_17_0_0 <= 0
 inactive_no_flow_3_19_0_0: flow_3_19_0_0 - 1000 edge_3_19_0_0 <= 0
 inactive_no_flow_4_1_0_0: flow_4_1_0_0 - 1000 edge_4_1_0_0 <= 0
 inactive_no_flow_4_2_0_0: flow_4_2_0_0 - 1000 edge_4_2_0_0 <= 0
 inactive_no_flow_4_3_0_0: flow_4_3_0_0 - 1000 edge_4_3_0_0 <= 0
 inactive_no_flow_4_5_0_0: flow_4_5_0_0 - 1000 edge_4_5_0_0 <= 0
 inactive_no_flow_4_6_0_0: flow_4_6_0_0 - 1000 edge_4_6_0_0 <= 0
 inactive_no_flow_4_7_0_0: flow_4_7_0_0 - 1000 edge_4_7_0_0 <= 0
 inactive_no_flow_4_9_0_0: flow_4_9_0_0 - 1000 edge_4_9_0_0 <= 0
 inactive_no_flow_4_10_0_0: flow_4_10_0_0 - 1000 edge_4_10_0_0 <= 0
 inactive_no_flow_4_12_0_0: flow_4_12_0_0 - 1000 edge_4_12_0_0 <= 0
 inactive_no_flow_4_13_0_0: flow_4_13_0_0 - 1000 edge_4_13_0_0 <= 0
 inactive_no_flow_4_15_0_0: flow_4_15_0_0 - 1000 edge_4_15_0_0 <= 0
 inactive_no_flow_4_17_0_0: flow_4_17_0_0 - 1000 edge_4_17_0_0 <= 0
 inactive_no_flow_4_18_0_0: flow_4_18_0_0 - 1000 edge_4_18_0_0 <= 0
 inactive_no_flow_4_19_0_0: flow_4_19_0_0 - 1000 edge_4_19_0_0 <= 0
 inactive_no_flow_5_1_0_0: flow_5_1_0_0 - 1000 edge_5_1_0_0 <= 0
 inactive_no_flow_5_2_0_0: flow_5_2_0_0 - 1000 edge_5_2_0_0 <= 0
 inactive_no_flow_5_3_0_0: flow_5_3_0_0 - 1000 edge_5_3_0_0 <= 0
 inactive_no_flow_5_4_0_0: flow_5_4_0_0 - 1000 edge_5_4_0_0 <= 0
 inactive_no_flow_5_6_0_0: flow_5_6_0_0 - 1000 edge_5_6_0_0 <= 0
 inactive_no_flow_5_7_0_0: flow_5_7_0_0 - 1000 edge_5_7_0_0 <= 0
 inactive_no_flow_5_9_0_0: flow_5_9_0_0 - 1000 edge_5_9_0_0 <= 0
 inactive_no_flow_5_10_0_0: flow_5_10_0_0 - 1000 edge_5_10_0_0 <= 0
 inactive_no_flow_5_12_0_0: flow_5_12_0_0 - 1000 edge_5_12_0_0 <= 0
 inactive_no_flow_5_13_0_0: flow_5_13_0_0 - 1000 edge_5_13_0_0 <= 0
 inactive_no_flow_5_15_0_0: flow_5_15_0_0 - 1000 edge_5_15_0_0 <= 0
 inactive_no_flow_5_17_0_0: flow_5_17_0_0 - 1000 edge_5_17_0_0 <= 0
 inactive_no_flow_5_18_0_0: flow_5_18_0_0 - 1000 edge_5_18_0_0 <= 0
 inactive_no_flow_5_19_0_0: flow_5_19_0_0 - 1000 edge_5_19_0_0 <= 0
 inactive_no_flow_6_1_0_0: flow_6_1_0_0 - 1000 edge_6_1_0_0 <= 0
 inactive_no_flow_6_2_0_0: flow_6_2_0_0 - 1000 edge_6_2_0_0 <= 0
 inactive_no_flow_6_3_0_0: flow_6_3_0_0 - 1000 edge_6_3_0_0 <= 0
 inactive_no_flow_6_4_0_0: flow_6_4_0_0 - 1000 edge_6_4_0_0 <= 0
 inactive_no_flow_6_5_0_0: flow_6_5_0_0 - 1000 edge_6_5_0_0 <= 0
 inactive_no_flow_6_7_0_0: flow_6_7_0_0 - 1000 edge_6_7_0_0 <= 0
 inactive_no_flow_6_9_0_0: flow_6_9_0_0 - 1000 edge_6_9_0_0 <= 0
 inactive_no_flow_6_10_0_0: flow_6_10_0_0 - 1000 edge_6_10_0_0 <= 0
 inactive_no_flow_6_12_0_0: flow_6_12_0_0 - 1000 edge_6_12_0_0 <= 0
 inactive_no_flow_6_13_0_0: flow_6_13_0_0 - 1000 edge_6_13_0_0 <= 0
 inactive_no_flow_6_15_0_0: flow_6_15_0_0 - 1000 edge_6_15_0_0 <= 0
 inactive_no_flow_6_17_0_0: flow_6_17_0_0 - 1000 edge_6_17_0_0 <= 0
 inactive_no_flow_6_18_0_0: flow_6_18_0_0 - 1000 edge_6_18_0_0 <= 0
 inactive_no_flow_6_19_0_0: flow_6_19_0_0 - 1000 edge_6_19_0_0 <= 0
 inactive_no_flow_7_2_0_0: flow_7_2_0_0 - 1000 edge_7_2_0_0 <= 0
 inactive_no_flow_7_4_0_0: flow_7_4_0_0 - 1000 edge_7_4_0_0 <= 0
 inactive_no_flow_7_5_0_0: flow_7_5_0_0 - 1000 edge_7_5_0_0 <= 0
 inactive_no_flow_7_6_0_0: flow_7_6_0_0 - 1000 edge_7_6_0_0 <= 0
 inactive_no_flow_7_9_0_0: flow_7_9_0_0 - 1000 edge_7_9_0_0 <= 0
 inactive_no_flow_7_10_0_0: flow_7_10_0_0 - 1000 edge_7_10_0_0 <= 0
 inactive_no_flow_7_12_0_0: flow_7_12_0_0 - 1000 edge_7_12_0_0 <= 0
 inactive_no_flow_7_13_0_0: flow_7_13_0_0 - 1000 edge_7_13_0_0 <= 0
 inactive_no_flow_9_1_0_0: flow_9_1_0_0 - 1000 edge_9_1_0_0 <= 0
 inactive_no_flow_9_2_0_0: flow_9_2_0_0 - 1000 edge_9_2_0_0 <= 0
 inactive_no_flow_9_3_0_0: flow_9_3_0_0 - 1000 edge_9_3_0_0 <= 0
 inactive_no_flow_9_4_0_0: flow_9_4_0_0 - 1000 edge_9_4_0_0 <= 0
 inactive_no_flow_9_5_0_0: flow_9_5_0_0 - 1000 edge_9_5_0_0 <= 0
 inactive_no_flow_9_6_0_0: flow_9_6_0_0 - 1000 edge_9_6_0_0 <= 0
 inactive_no_flow_9_7_0_0: flow_9_7_0_0 - 1000 edge_9_7_0_0 <= 0
 inactive_no_flow_9_10_0_0: flow_9_10_0_0 - 1000 edge_9_10_0_0 <= 0
 inactive_no_flow_9_12_0_0: flow_9_12_0_0 - 1000 edge_9_12_0_0 <= 0
 inactive_no_flow_9_13_0_0: flow_9_13_0_0 - 1000 edge_9_13_0_0 <= 0
 inactive_no_flow_9_15_0_0: flow_9_15_0_0 - 1000 edge_9_15_0_0 <= 0
 inactive_no_flow_9_17_0_0: flow_9_17_0_0 - 1000 edge_9_17_0_0 <= 0
 inactive_no_flow_9_18_0_0: flow_9_18_0_0 - 1000 edge_9_18_0_0 <= 0
 inactive_no_flow_9_19_0_0: flow_9_19_0_0 - 1000 edge_9_19_0_0 <= 0
 inactive_no_flow_10_4_0_0: flow_10_4_0_0 - 1000 edge_10_4_0_0 <= 0
 inactive_no_flow_10_5_0_0: flow_10_5_0_0 - 1000 edge_10_5_0_0 <= 0
 inactive_no_flow_10_6_0_0: flow_10_6_0_0 - 1000 edge_10_6_0_0 <= 0
 inactive_no_flow_10_7_0_0: flow_10_7_0_0 - 1000 edge_10_7_0_0 <= 0
 inactive_no_flow_10_9_0_0: flow_10_9_0_0 - 1000 edge_10_9_0_0 <= 0
 inactive_no_flow_10_12_0_0: flow_10_12_0_0 - 1000 edge_10_12_0_0 <= 0
 inactive_no_flow_10_13_0_0: flow_10_13_0_0 - 1000 edge_10_13_0_0 <= 0
 inactive_no_flow_10_15_0_0: flow_10_15_0_0 - 1000 edge_10_15_0_0 <= 0
 inactive_no_flow_10_17_0_0: flow_10_17_0_0 - 1000 edge_10_17_0_0 <= 0
 inactive_no_flow_10_18_0_0: flow_10_18_0_0 - 1000 edge_10_18_0_0 <= 0
 inactive_no_flow_12_1_0_0: flow_12_1_0_0 - 1000 edge_12_1_0_0 <= 0
 inactive_no_flow_12_2_0_0: flow_12_2_0_0 - 1000 edge_12_2_0_0 <= 0
 inactive_no_flow_12_3_0_0: flow_12_3_0_0 - 1000 edge_12_3_0_0 <= 0
 inactive_no_flow_12_4_0_0: flow_12_4_0_0 - 1000 edge_12_4_0_0 <= 0
 inactive_no_flow_12_5_0_0: flow_12_5_0_0 - 1000 edge_12_5_0_0 <= 0
 inactive_no_flow_12_6_0_0: flow_12_6_0_0 - 1000 edge_12_6_0_0 <= 0
 inactive_no_flow_12_7_0_0: flow_12_7_0_0 - 1000 edge_12_7_0_0 <= 0
 inactive_no_flow_12_9_0_0: flow_12_9_0_0 - 1000 edge_12_9_0_0 <= 0
 inactive_no_flow_12_10_0_0: flow_12_10_0_0 - 1000 edge_12_10_0_0 <= 0
 inactive_no_flow_12_13_0_0: flow_12_13_0_0 - 1000 edge_12_13_0_0 <= 0
 inactive_no_flow_12_15_0_0: flow_12_15_0_0 - 1000 edge_12_15_0_0 <= 0
 inactive_no_flow_12_17_0_0: flow_12_17_0_0 - 1000 edge_12_17_0_0 <= 0
 inactive_no_flow_12_18_0_0: flow_12_18_0_0 - 1000 edge_12_18_0_0 <= 0
 inactive_no_flow_12_19_0_0: flow_12_19_0_0 - 1000 edge_12_19_0_0 <= 0
 inactive_no_flow_13_4_0_0: flow_13_4_0_0 - 1000 edge_13_4_0_0 <= 0
 inactive_no_flow_13_6_0_0: flow_13_6_0_0 - 1000 edge_13_6_0_0 <= 0
 inactive_no_flow_13_7_0_0: flow_13_7_0_0 - 1000 edge_13_7_0_0 <= 0
 inactive_no_flow_13_9_0_0: flow_13_9_0_0 - 1000 edge_13_9_0_0 <= 0
 inactive_no_flow_13_10_0_0: flow_13_10_0_0 - 1000 edge_13_10_0_0 <= 0
 inactive_no_flow_13_12_0_0: flow_13_12_0_0 - 1000 edge_13_12_0_0 <= 0
 inactive_no_flow_13_15_0_0: flow_13_15_0_0 - 1000 edge_13_15_0_0 <= 0
 inactive_no_flow_13_17_0_0: flow_13_17_0_0 - 1000 edge_13_17_0_0 <= 0
 inactive_no_flow_13_18_0_0: flow_13_18_0_0 - 1000 edge_13_18_0_0 <= 0
 inactive_no_flow_13_19_0_0: flow_13_19_0_0 - 1000 edge_13_19_0_0 <= 0
 inactive_no_flow_15_1_0_0: flow_15_1_0_0 - 1000 edge_15_1_0_0 <= 0
 inactive_no_flow_15_2_0_0: flow_15_2_0_0 - 1000 edge_15_2_0_0 <= 0
 inactive_no_flow_15_3_0_0: flow_15_3_0_0 - 1000 edge_15_3_0_0 <= 0
 inactive_no_flow_15_4_0_0: flow_15_4_0_0 - 1000 edge_15_4_0_0 <= 0
 inactive_no_flow_15_5_0_0: flow_15_5_0_0 - 1000 edge_15_5_0_0 <= 0
 inactive_no_flow_15_6_0_0: flow_15_6_0_0 - 1000 edge_15_6_0_0 <= 0
 inactive_no_flow_15_7_0_0: flow_15_7_0_0 - 1000 edge_15_7_0_0 <= 0
 inactive_no_flow_15_9_0_0: flow_15_9_0_0 - 1000 edge_15_9_0_0 <= 0
 inactive_no_flow_15_10_0_0: flow_15_10_0_0 - 1000 edge_15_10_0_0 <= 0
 inactive_no_flow_15_12_0_0: flow_15_12_0_0 - 1000 edge_15_12_0_0 <= 0
 inactive_no_flow_15_13_0_0: flow_15_13_0_0 - 1000 edge_15_13_0_0 <= 0
 inactive_no_flow_15_17_0_0: flow_15_17_0_0 - 1000 edge_15_17_0_0 <= 0
 inactive_no_flow_15_18_0_0: flow_15_18_0_0 - 1000 edge_15_18_0_0 <= 0
 inactive_no_flow_15_19_0_0: flow_15_19_0_0 - 1000 edge_15_19_0_0 <= 0
 inactive_no_flow_17_9_0_0: flow_17_9_0_0 - 1000 edge_17_9_0_0 <= 0
 inactive_no_flow_17_12_0_0: flow_17_12_0_0 - 1000 edge_17_12_0_0 <= 0
 inactive_no_flow_17_13_0_0: flow_17_13_0_0 - 1000 edge_17_13_0_0 <= 0
 inactive_no_flow_17_15_0_0: flow_17_15_0_0 - 1000 edge_17_15_0_0 <= 0
 inactive_no_flow_17_18_0_0: flow_17_18_0_0 - 1000 edge_17_18_0_0 <= 0
 inactive_no_flow_17_19_0_0: flow_17_19_0_0 - 1000 edge_17_19_0_0 <= 0
 inactive_no_flow_18_2_0_0: flow_18_2_0_0 - 1000 edge_18_2_0_0 <= 0
 inactive_no_flow_18_5_0_0: flow_18_5_0_0 - 1000 edge_18_5_0_0 <= 0
 inactive_no_flow_18_6_0_0: flow_18_6_0_0 - 1000 edge_18_6_0_0 <= 0
 inactive_no_flow_18_7_0_0: flow_18_7_0_0 - 1000 edge_18_7_0_0 <= 0
 inactive_no_flow_18_9_0_0: flow_18_9_0_0 - 1000 edge_18_9_0_0 <= 0
 inactive_no_flow_18_10_0_0: flow_18_10_0_0 - 1000 edge_18_10_0_0 <= 0
 inactive_no_flow_18_12_0_0: flow_18_12_0_0 - 1000 edge_18_12_0_0 <= 0
 inactive_no_flow_18_13_0_0: flow_18_13_0_0 - 1000 edge_18_13_0_0 <= 0
 inactive_no_flow_18_15_0_0: flow_18_15_0_0 - 1000 edge_18_15_0_0 <= 0
 inactive_no_flow_18_17_0_0: flow_18_17_0_0 - 1000 edge_18_17_0_0 <= 0
 inactive_no_flow_18_19_0_0: flow_18_19_0_0 - 1000 edge_18_19_0_0 <= 0
 inactive_no_flow_19_17_0_0: flow_19_17_0_0 - 1000 edge_19_17_0_0 <= 0
 inactive_no_flow_19_18_0_0: flow_19_18_0_0 - 1000 edge_19_18_0_0 <= 0
Bounds
Binaries
 edge_0_1_0_0 edge_0_2_0_0 edge_0_3_0_0 edge_0_4_0_0 edge_0_5_0_0
 edge_0_6_0_0 edge_0_9_0_0 edge_0_12_0_0 edge_0_15_0_0 edge_0_18_0_0
 edge_1_2_0_0 edge_1_4_0_0 edge_1_5_0_0 edge_1_6_0_0 edge_2_1_0_0
 edge_2_3_0_0 edge_2_4_0_0 edge_2_5_0_0 edge_2_6_0_0 edge_2_7_0_0
 edge_2_9_0_0 edge_2_10_0_0 edge_2_12_0_0 edge_2_13_0_0 edge_2_15_0_0
 edge_2_17_0_0 edge_2_18_0_0 edge_2_19_0_0 edge_3_2_0_0 edge_3_4_0_0
 edge_3_5_0_0 edge_3_6_0_0 edge_3_13_0_0 edge_3_17_0_0 edge_3_19_0_0
 edge_4_1_0_0 edge_4_2_0_0 edge_4_3_0_0 edge_4_5_0_0 edge_4_6_0_0
 edge_4_7_0_0 edge_4_9_0_0 edge_4_10_0_0 edge_4_12_0_0 edge_4_13_0_0
 edge_4_15_0_0 edge_4_17_0_0 edge_4_18_0_0 edge_4_19_0_0 edge_5_1_0_0
 edge_5_2_0_0 edge_5_3_0_0 edge_5_4_0_0 edge_5_6_0_0 edge_5_7_0_0
 edge_5_9_0_0 edge_5_10_0_0 edge_5_12_0_0 edge_5_13_0_0 edge_5_15_0_0
 edge_5_17_0_0 edge_5_18_0_0 edge_5_19_0_0 edge_6_1_0_0 edge_6_2_0_0
 edge_6_3_0_0 edge_6_4_0_0 edge_6_5_0_0 edge_6_7_0_0 edge_6_9_0_0
 edge_6_10_0_0 edge_6_12_0_0 edge_6_13_0_0 edge_6_15_0_0 edge_6_17_0_0
 edge_6_18_0_0 edge_6_19_0_0 edge_7_2_0_0 edge_7_4_0_0 edge_7_5_0_0
 edge_7_6_0_0 edge_7_9_0_0 edge_7_10_0_0 edge_7_12_0_0 edge_7_13_0_0
 edge_9_1_0_0 edge_9_2_0_0 edge_9_3_0_0 edge_9_4_0_0 edge_9_5_0_0
 edge_9_6_0_0 edge_9_7_0_0 edge_9_10_0_0 edge_9_12_0_0 edge_9_13_0_0
 edge_9_15_0_0 edge_9_17_0_0 edge_9_18_0_0 edge_9_19_0_0 edge_10_4_0_0
 edge_10_5_0_0 edge_10_6_0_0 edge_10_7_0_0 edge_10_9_0_0 edge_10_12_0_0
 edge_10_13_0_0 edge_10_15_0_0 edge_10_17_0_0 edge_10_18_0_0 edge_12_1_0_0
 edge_12_2_0_0 edge_12_3_0_0 edge_12_4_0_0 edge_12_5_0_0 edge_12_6_0_0
 edge_12_7_0_0 edge_12_9_0_0 edge_12_10_0_0 edge_12_13_0_0 edge_12_15_0_0
 edge_12_17_0_0 edge_12_18_0_0 edge_12_19_0_0 edge_13_4_0_0 edge_13_6_0_0
 edge_13_7_0_0 edge_13_9_0_0 edge_13_10_0_0 edge_13_12_0_0 edge_13_15_0_0
 edge_13_17_0_0 edge_13_18_0_0 edge_13_19_0_0 edge_15_1_0_0 edge_15_2_0_0
 edge_15_3_0_0 edge_15_4_0_0 edge_15_5_0_0 edge_15_6_0_0 edge_15_7_0_0
 edge_15_9_0_0 edge_15_10_0_0 edge_15_12_0_0 edge_15_13_0_0 edge_15_17_0_0
 edge_15_18_0_0 edge_15_19_0_0 edge_17_9_0_0 edge_17_12_0_0 edge_17_13_0_0
 edge_17_15_0_0 edge_17_18_0_0 edge_17_19_0_0 edge_18_2_0_0 edge_18_5_0_0
 edge_18_6_0_0 edge_18_7_0_0 edge_18_9_0_0 edge_18_10_0_0 edge_18_12_0_0
 edge_18_13_0_0 edge_18_15_0_0 edge_18_17_0_0 edge_18_19_0_0 edge_19_17_0_0
 edge_19_18_0_0
End
